Version identifier: 22.1.0.0 | 2022-03-09 | 1a383f8ce
CPXPARAM_Threads                                 1
CPXPARAM_MIP_Strategy_VariableSelect             3
CPXPARAM_TimeLimit                               599.99999203000004
1 of 1 MIP starts provided solutions.
MIP start 'm1' defined initial solution with objective 382.0000.
Tried aggregator 1 time.
MIP Presolve eliminated 17 rows and 382 columns.
MIP Presolve modified 44 coefficients.
Reduced MIP has 2670 rows, 4584 columns, and 115521 nonzeros.
Reduced MIP has 4584 binaries, 0 generals, 0 SOSs, and 0 indicators.
Presolve time = 0.12 sec. (181.70 ticks)
Probing time = 0.02 sec. (16.22 ticks)
Tried aggregator 1 time.
Detecting symmetries...
MIP Presolve modified 12 coefficients.
Reduced MIP has 2670 rows, 4584 columns, and 115665 nonzeros.
Reduced MIP has 4584 binaries, 0 generals, 0 SOSs, and 0 indicators.
Presolve time = 0.12 sec. (173.84 ticks)
Probing time = 0.02 sec. (16.23 ticks)
Clique table members: 1900.
MIP emphasis: balance optimality and feasibility.
MIP search method: dynamic search.
Parallel mode: none, using 1 thread.
Root relaxation solution time = 0.02 sec. (15.45 ticks)

        Nodes                                         Cuts/
   Node  Left     Objective  IInf  Best Integer    Best Bound    ItCnt     Gap

*     0+    0                          382.0000    73153.0000              --- 
      0     0        cutoff            382.0000                     12     --- 

Root node processing (before b&c):
  Real time             =    0.37 sec. (476.79 ticks)
Sequential b&c:
  Real time             =    0.00 sec. (0.00 ticks)
                          ------------
Total (root+branch&cut) =    0.37 sec. (476.79 ticks)
Primal:	382
Dual:	382
Status:	Optimal
Time:	0.43
Sequence:
	7
	0
	5
	4
	9
	5
	8
	10
	9
	5
	8
	1
	9
	3
	9
	0
	1
	9
	5
	9
	9
	9
	4
	7
	0
	4
	9
	9
	0
	4
	6
	0
	4
	10
	4
	1
	0
	5
	4
	1
	9
	7
	4
	0
	5
	4
	1
	0
	5
	4
	0
	9
	11
	4
	5
	0
	4
	6
	0
	5
	4
	9
	1
	9
	7
	0
	4
	9
	9
	9
	6
	0
	4
	9
	4
	3
	9
	0
	4
	6
	0
	3
	4
	1
	9
	5
	4
	1
	9
	11
	4
	6
	9
	0
	4
	9
	5
	0
	1
	4
	0
	9
	9
	0
	4
	4
	9
	0
	4
	5
	0
	6
	4
	1
	9
	1
	4
	4
	9
	9
	5
	4
	0
	6
	9
	5
	9
	1
	9
	4
	9
	9
	1
	4
	6
	9
	5
	4
	9
	4
	5
	9
	7
	4
	1
	9
	4
	1
	4
	0
	6
	9
	0
	9
	1
	4
	6
	0
	4
	7
	9
	9
	5
	4
	9
	7
	9
	9
	1
	4
	9
	5
	9
	9
	4
	5
	9
	6
	9
	9
	4
	7
	9
	5
	4
	9
	5
	9
	1
	9
	5
	9
	6
	9
	7
	4
	9
	9
	4
	6
	9
	5
	4
	1
	9
	1
	4
	5
	9
	1
	4
	9
	7
	4
	1
	4
	5
	9
	1
	9
	9
	4
	7
	9
	6
	4
	1
	4
	9
	4
	9
	7
	4
	9
	1
	9
	4
	6
	9
	1
	9
	6
	9
	9
	1
	4
	7
	9
	9
	9
	4
	4
	9
	1
	9
	4
	1
	9
	6
	4
	1
	4
	7
	9
	4
	4
	1
	4
	7
	9
	6
	9
	1
	4
	6
	9
	1
	4
	4
	9
	7
	4
	1
	9
	1
	9
	6
	4
	1
	4
	1
	4
	1
	9
	9
	4
	6
	9
	1
	4
	6
	9
	9
	4
	9
	4
	4
	9
	1
	4
	6
	9
	4
	1
	9
	1
	4
	4
	9
	4
	4
	9
	9
	4
	6
	9
	1
	4
	9
	4
	1
	4
	9
	9
	1
	4
	4
	9
	6
	9
	4
	4
	9
	1
	9
	6
	9
	1
	9
	6
	9
	1
	9
	6
	4
	1
	9
	1
	4
	1
	9
	9
	1
	9
	1
	9
	1
	9
	1
	9
	9
	9
	9
	9
	9
	9
	9
	9
	9
	9
	9
	9
